
param K :=
2660
;
 
param ProcV :=
1 63.42276
2 57.86666
3 56.16119
4 60.88706
;
 
param demand :=
1 1900
2 1200
3 1600
4 600
;
 
param cost :
1 2 3 4 :=
1
0
14
11
14
2
27
0
12
22
3
24
14
0
12
4
10
13
3
0
;
 
